experiment/data/lkh-res/Vrp-Set-X-n214/Vrp-Set-X-n214-lkh/0.lkh1.vrp
NAME : 0
COMMENT : CVRP Instance
TYPE : CVRP
DIMENSION : 214
EDGE_WEIGHT_TYPE : EUC_2D
CAPACITY : 944
NODE_COORD_SECTION
1	50000	50000
2	75300	35500
3	66300	8300
4	72500	28600
5	58100	44400
6	70000	20500
7	63000	47500
8	56000	40700
9	84800	37400
10	75200	31500
11	45400	31000
12	68500	22700
13	74700	46800
14	54000	34800
15	88200	34600
16	76200	22800
17	88400	30700
18	68100	27400
19	76100	25400
20	79100	20500
21	69900	55900
22	69400	35200
23	67900	1100
24	65600	44600
25	42800	48700
26	83800	39500
27	55400	59000
28	56700	25000
29	76900	38100
30	75300	2000
31	71000	29600
32	65300	48900
33	71100	44700
34	51600	32200
35	70400	26500
36	74200	35800
37	57800	42300
38	92300	37800
39	45100	12000
40	44900	25400
41	62600	26400
42	70100	20300
43	75100	29300
44	83500	0
45	81000	31800
46	64000	21800
47	49300	22600
48	48300	44500
49	67100	13400
50	46500	36100
51	52100	6900
52	89400	39900
53	82400	38800
54	60500	23800
55	84800	25100
56	56100	44300
57	66300	900
58	76800	33900
59	63400	42600
60	59000	6000
61	73500	28000
62	84200	36500
63	67100	12400
64	68000	25100
65	61500	36100
66	55800	45100
67	88400	35600
68	74600	38400
69	68700	22700
70	85500	35000
71	65600	45000
72	56000	45900
73	59100	43300
74	45100	3600
75	74700	2600
76	75300	38400
77	53000	25900
78	73900	21500
79	53700	26700
80	74200	30400
81	50900	41800
82	66700	1700
83	53400	29700
84	60500	38200
85	47000	48200
86	81700	36600
87	81500	26800
88	72800	26400
89	77800	4400
90	85600	36000
91	81800	28400
92	66600	10700
93	62800	37800
94	53800	31700
95	71500	3400
96	87500	29000
97	49500	46800
98	58400	14500
99	72500	23700
100	56300	39400
101	77500	37800
102	58700	44300
103	53500	66500
104	69600	38700
105	70400	15300
106	66700	44800
107	55700	44000
108	68200	46100
109	76200	27900
110	82400	52200
111	76400	25900
112	75900	33400
113	75000	39100
114	89300	28300
115	90000	30800
116	59500	7300
117	64100	47400
118	59700	23600
119	29400	44800
120	85200	18200
121	52600	33000
122	73500	46000
123	90100	30300
124	63900	39000
125	54500	39500
126	49400	200
127	74100	33900
128	79500	45600
129	78300	34300
130	69400	22400
131	75600	9900
132	69800	32300
133	68300	22200
134	70400	26900
135	76900	32100
136	59600	32100
137	60500	10300
138	50700	44800
139	56700	46400
140	74300	20500
141	62200	44900
142	76700	11600
143	74500	26900
144	60300	44700
145	63400	19400
146	83200	31200
147	79600	29200
148	66200	8600
149	60800	61800
150	48900	26700
151	83700	28900
152	47800	51000
153	56900	49700
154	61100	55000
155	74900	38700
156	68300	35500
157	68200	8100
158	70100	17000
159	65300	41400
160	58400	2100
161	68300	30800
162	65900	58200
163	66800	32900
164	66200	28800
165	89700	39900
166	77000	36600
167	54000	21200
168	60600	30900
169	58100	25400
170	58200	48500
171	84800	38100
172	82800	15000
173	53600	44500
174	53100	5600
175	70700	42400
176	58700	19100
177	77000	25900
178	70200	9400
179	82300	16200
180	64400	36400
181	57000	18600
182	55200	31700
183	62600	8800
184	99900	63100
185	86000	27400
186	35400	66200
187	62500	32300
188	65400	28500
189	78500	8200
190	65000	33500
191	63700	56800
192	44900	35900
193	88500	7700
194	55200	44000
195	81000	20500
196	62800	2400
197	72800	29400
198	73300	31100
199	75000	32700
200	72700	27800
201	61800	33600
202	53700	13700
203	71800	41300
204	72500	35500
205	71000	13900
206	72300	55600
207	44900	34600
208	73100	37300
209	34900	46500
210	57200	54200
211	61200	37700
212	71100	41700
213	67800	4400
214	60400	59300
DEMAND_SECTION
1	0
2	83
3	84
4	34
5	17
6	88
7	59
8	56
9	33
10	21
11	37
12	15
13	97
14	23
15	76
16	94
17	99
18	30
19	44
20	45
21	8
22	37
23	43
24	15
25	18
26	73
27	65
28	89
29	5
30	13
31	64
32	60
33	20
34	12
35	59
36	25
37	2
38	60
39	61
40	6
41	17
42	65
43	26
44	96
45	21
46	63
47	29
48	24
49	51
50	48
51	65
52	58
53	40
54	34
55	81
56	21
57	51
58	31
59	20
60	34
61	47
62	61
63	2
64	93
65	75
66	85
67	27
68	57
69	86
70	61
71	98
72	76
73	68
74	30
75	72
76	28
77	12
78	24
79	42
80	95
81	3
82	92
83	32
84	59
85	33
86	68
87	30
88	15
89	40
90	45
91	33
92	26
93	70
94	89
95	29
96	88
97	69
98	67
99	94
100	23
101	97
102	7
103	23
104	6
105	65
106	84
107	79
108	3
109	99
110	22
111	69
112	49
113	33
114	28
115	49
116	37
117	18
118	56
119	44
120	40
121	64
122	80
123	9
124	57
125	3
126	11
127	95
128	86
129	79
130	23
131	60
132	12
133	62
134	15
135	89
136	35
137	85
138	92
139	49
140	12
141	10
142	72
143	64
144	27
145	18
146	22
147	17
148	84
149	21
150	13
151	77
152	35
153	100
154	2
155	50
156	17
157	75
158	44
159	56
160	27
161	85
162	20
163	31
164	15
165	10
166	100
167	51
168	6
169	7
170	19
171	87
172	46
173	74
174	91
175	79
176	67
177	38
178	39
179	40
180	91
181	71
182	54
183	80
184	42
185	28
186	76
187	59
188	97
189	12
190	2
191	64
192	52
193	63
194	24
195	8
196	23
197	69
198	77
199	60
200	59
201	10
202	31
203	94
204	94
205	18
206	93
207	68
208	12
209	69
210	45
211	22
212	48
213	95
214	95
DEPOT_SECTION
1
-1
EOF
