experiment/data/lkh-res/Vrp-Set-X-n214/Vrp-Set-X-n214-lkh/0.lkh1.log
PARAMETER_FILE = baseline_results/cvrp_lkh/Vrp-Set-X-n214/Vrp-Set-X-n214-lkh/0.lkh1.par
Reading PROBLEM_FILE: "baseline_results/cvrp_lkh/Vrp-Set-X-n214/Vrp-Set-X-n214-lkh/0.lkh1.vrp" ... done
ASCENT_CANDIDATES = 50
BACKBONE_TRIALS = 0
BACKTRACKING = NO
# BWTSP =
# CANDIDATE_FILE =
CANDIDATE_SET_TYPE = ALPHA
# DISTANCE =
DEPOT = 1
# EDGE_FILE =
EXCESS = 0.0046729
EXTERNAL_SALESMEN = 0
EXTRA_CANDIDATES = 0 
EXTRA_CANDIDATE_SET_TYPE = QUADRANT
GAIN23 = NO
GAIN_CRITERION = YES
INITIAL_PERIOD = 107
INITIAL_STEP_SIZE = 1
INITIAL_TOUR_ALGORITHM = WALK
# INITIAL_TOUR_FILE = 
INITIAL_TOUR_FRACTION = 1.000
# INPUT_TOUR_FILE = 
KICK_TYPE = 4
KICKS = 1
# MAX_BREADTH =
MAKESPAN = NO
MAX_CANDIDATES = 5 
MAX_SWAPS = 0
MAX_TRIALS = 10000
# MERGE_TOUR_FILE =
MOVE_TYPE = 5 SPECIAL
MTSP_MIN_SIZE = 1
MTSP_MAX_SIZE = 213
# MTSP_SOLUTION_FILE = 
# NONSEQUENTIAL_MOVE_TYPE = 5
# OPTIMUM =
OUTPUT_TOUR_FILE = baseline_results/cvrp_lkh/Vrp-Set-X-n214/Vrp-Set-X-n214-lkh/0.lkh1.tour
PATCHING_A = 1 
PATCHING_C = 0 
# PI_FILE = 
POPMUSIC_INITIAL_TOUR = NO
POPMUSIC_MAX_NEIGHBORS = 5
POPMUSIC_SAMPLE_SIZE = 10
POPMUSIC_SOLUTIONS = 50
POPMUSIC_TRIALS = 1
POPULATION_SIZE = 10
PRECISION = 100
PROBLEM_FILE = baseline_results/cvrp_lkh/Vrp-Set-X-n214/Vrp-Set-X-n214-lkh/0.lkh1.vrp
RECOMBINATION = IPT
RESTRICTED_SEARCH = YES
RUNS = 1
SALESMEN = 11
SCALE = 1
SEED = 1234
# SINTEF_SOLUTION_FILE = 
STOP_AT_OPTIMUM = YES
SUBGRADIENT = YES
# SUBPROBLEM_SIZE =
# SUBPROBLEM_TOUR_FILE = 
SUBSEQUENT_MOVE_TYPE = 5 SPECIAL
SUBSEQUENT_PATCHING = YES
# TIME_LIMIT =
# TOTAL_TIME_LIMIT =
# TOUR_FILE = 
TRACE_LEVEL = 1
VEHICLES = 11

Lower bound = 734488.6, Ascent time = 0.05 sec.
Cand.min = 3, Cand.avg = 5.0, Cand.max = 5
Preprocessing time = 0.05 sec.
* 1: Cost = 0_1443863, Time = 0.07 sec. 
Writing OUTPUT_TOUR_FILE: "baseline_results/cvrp_lkh/Vrp-Set-X-n214/Vrp-Set-X-n214-lkh/0.lkh1.tour" ... done
* 3: Cost = 0_1417786, Time = 0.16 sec. 
Writing OUTPUT_TOUR_FILE: "baseline_results/cvrp_lkh/Vrp-Set-X-n214/Vrp-Set-X-n214-lkh/0.lkh1.tour" ... done
* 5: Cost = 0_1405976, Time = 0.24 sec. 
Writing OUTPUT_TOUR_FILE: "baseline_results/cvrp_lkh/Vrp-Set-X-n214/Vrp-Set-X-n214-lkh/0.lkh1.tour" ... done
* 7: Cost = 0_1349689, Time = 0.34 sec. 
Writing OUTPUT_TOUR_FILE: "baseline_results/cvrp_lkh/Vrp-Set-X-n214/Vrp-Set-X-n214-lkh/0.lkh1.tour" ... done
* 8: Cost = 0_1328702, Time = 0.37 sec. 
Writing OUTPUT_TOUR_FILE: "baseline_results/cvrp_lkh/Vrp-Set-X-n214/Vrp-Set-X-n214-lkh/0.lkh1.tour" ... done
* 9: Cost = 0_1308368, Time = 0.42 sec. 
Writing OUTPUT_TOUR_FILE: "baseline_results/cvrp_lkh/Vrp-Set-X-n214/Vrp-Set-X-n214-lkh/0.lkh1.tour" ... done
* 15: Cost = 0_1302211, Time = 0.60 sec. 
Writing OUTPUT_TOUR_FILE: "baseline_results/cvrp_lkh/Vrp-Set-X-n214/Vrp-Set-X-n214-lkh/0.lkh1.tour" ... done
* 16: Cost = 0_1294378, Time = 0.63 sec. 
Writing OUTPUT_TOUR_FILE: "baseline_results/cvrp_lkh/Vrp-Set-X-n214/Vrp-Set-X-n214-lkh/0.lkh1.tour" ... done
* 17: Cost = 0_1276505, Time = 0.67 sec. 
Writing OUTPUT_TOUR_FILE: "baseline_results/cvrp_lkh/Vrp-Set-X-n214/Vrp-Set-X-n214-lkh/0.lkh1.tour" ... done
* 24: Cost = 0_1260568, Time = 0.86 sec. 
Writing OUTPUT_TOUR_FILE: "baseline_results/cvrp_lkh/Vrp-Set-X-n214/Vrp-Set-X-n214-lkh/0.lkh1.tour" ... done
* 27: Cost = 0_1252686, Time = 0.98 sec. 
Writing OUTPUT_TOUR_FILE: "baseline_results/cvrp_lkh/Vrp-Set-X-n214/Vrp-Set-X-n214-lkh/0.lkh1.tour" ... done
* 28: Cost = 0_1244337, Time = 0.99 sec. 
Writing OUTPUT_TOUR_FILE: "baseline_results/cvrp_lkh/Vrp-Set-X-n214/Vrp-Set-X-n214-lkh/0.lkh1.tour" ... done
* 29: Cost = 0_1238556, Time = 1.01 sec. 
Writing OUTPUT_TOUR_FILE: "baseline_results/cvrp_lkh/Vrp-Set-X-n214/Vrp-Set-X-n214-lkh/0.lkh1.tour" ... done
* 33: Cost = 0_1221430, Time = 1.14 sec. 
Writing OUTPUT_TOUR_FILE: "baseline_results/cvrp_lkh/Vrp-Set-X-n214/Vrp-Set-X-n214-lkh/0.lkh1.tour" ... done
* 76: Cost = 0_1219234, Time = 2.83 sec. 
Writing OUTPUT_TOUR_FILE: "baseline_results/cvrp_lkh/Vrp-Set-X-n214/Vrp-Set-X-n214-lkh/0.lkh1.tour" ... done
* 77: Cost = 0_1211071, Time = 2.88 sec. 
Writing OUTPUT_TOUR_FILE: "baseline_results/cvrp_lkh/Vrp-Set-X-n214/Vrp-Set-X-n214-lkh/0.lkh1.tour" ... done
* 98: Cost = 0_1201452, Time = 3.68 sec. 
Writing OUTPUT_TOUR_FILE: "baseline_results/cvrp_lkh/Vrp-Set-X-n214/Vrp-Set-X-n214-lkh/0.lkh1.tour" ... done
* 106: Cost = 0_1198887, Time = 3.87 sec. 
Writing OUTPUT_TOUR_FILE: "baseline_results/cvrp_lkh/Vrp-Set-X-n214/Vrp-Set-X-n214-lkh/0.lkh1.tour" ... done
* 117: Cost = 0_1198564, Time = 4.22 sec. 
Writing OUTPUT_TOUR_FILE: "baseline_results/cvrp_lkh/Vrp-Set-X-n214/Vrp-Set-X-n214-lkh/0.lkh1.tour" ... done
* 136: Cost = 0_1192459, Time = 4.74 sec. 
Writing OUTPUT_TOUR_FILE: "baseline_results/cvrp_lkh/Vrp-Set-X-n214/Vrp-Set-X-n214-lkh/0.lkh1.tour" ... done
* 198: Cost = 0_1190216, Time = 7.19 sec. 
Writing OUTPUT_TOUR_FILE: "baseline_results/cvrp_lkh/Vrp-Set-X-n214/Vrp-Set-X-n214-lkh/0.lkh1.tour" ... done
* 210: Cost = 0_1189670, Time = 7.68 sec. 
Writing OUTPUT_TOUR_FILE: "baseline_results/cvrp_lkh/Vrp-Set-X-n214/Vrp-Set-X-n214-lkh/0.lkh1.tour" ... done
* 216: Cost = 0_1189220, Time = 7.90 sec. 
Writing OUTPUT_TOUR_FILE: "baseline_results/cvrp_lkh/Vrp-Set-X-n214/Vrp-Set-X-n214-lkh/0.lkh1.tour" ... done
* 221: Cost = 0_1183526, Time = 8.07 sec. 
Writing OUTPUT_TOUR_FILE: "baseline_results/cvrp_lkh/Vrp-Set-X-n214/Vrp-Set-X-n214-lkh/0.lkh1.tour" ... done
* 223: Cost = 0_1181565, Time = 8.10 sec. 
Writing OUTPUT_TOUR_FILE: "baseline_results/cvrp_lkh/Vrp-Set-X-n214/Vrp-Set-X-n214-lkh/0.lkh1.tour" ... done
* 241: Cost = 0_1180499, Time = 8.62 sec. 
Writing OUTPUT_TOUR_FILE: "baseline_results/cvrp_lkh/Vrp-Set-X-n214/Vrp-Set-X-n214-lkh/0.lkh1.tour" ... done
* 267: Cost = 0_1177401, Time = 9.36 sec. 
Writing OUTPUT_TOUR_FILE: "baseline_results/cvrp_lkh/Vrp-Set-X-n214/Vrp-Set-X-n214-lkh/0.lkh1.tour" ... done
* 268: Cost = 0_1176843, Time = 9.37 sec. 
Writing OUTPUT_TOUR_FILE: "baseline_results/cvrp_lkh/Vrp-Set-X-n214/Vrp-Set-X-n214-lkh/0.lkh1.tour" ... done
* 269: Cost = 0_1176133, Time = 9.39 sec. 
Writing OUTPUT_TOUR_FILE: "baseline_results/cvrp_lkh/Vrp-Set-X-n214/Vrp-Set-X-n214-lkh/0.lkh1.tour" ... done
* 274: Cost = 0_1166669, Time = 9.58 sec. 
Writing OUTPUT_TOUR_FILE: "baseline_results/cvrp_lkh/Vrp-Set-X-n214/Vrp-Set-X-n214-lkh/0.lkh1.tour" ... done
* 280: Cost = 0_1165619, Time = 9.76 sec. 
Writing OUTPUT_TOUR_FILE: "baseline_results/cvrp_lkh/Vrp-Set-X-n214/Vrp-Set-X-n214-lkh/0.lkh1.tour" ... done
* 292: Cost = 0_1164282, Time = 10.20 sec. 
Writing OUTPUT_TOUR_FILE: "baseline_results/cvrp_lkh/Vrp-Set-X-n214/Vrp-Set-X-n214-lkh/0.lkh1.tour" ... done
* 298: Cost = 0_1163101, Time = 10.43 sec. 
Writing OUTPUT_TOUR_FILE: "baseline_results/cvrp_lkh/Vrp-Set-X-n214/Vrp-Set-X-n214-lkh/0.lkh1.tour" ... done
* 305: Cost = 0_1158548, Time = 10.67 sec. 
Writing OUTPUT_TOUR_FILE: "baseline_results/cvrp_lkh/Vrp-Set-X-n214/Vrp-Set-X-n214-lkh/0.lkh1.tour" ... done
* 320: Cost = 0_1158470, Time = 11.17 sec. 
Writing OUTPUT_TOUR_FILE: "baseline_results/cvrp_lkh/Vrp-Set-X-n214/Vrp-Set-X-n214-lkh/0.lkh1.tour" ... done
* 398: Cost = 0_1157463, Time = 13.34 sec. 
Writing OUTPUT_TOUR_FILE: "baseline_results/cvrp_lkh/Vrp-Set-X-n214/Vrp-Set-X-n214-lkh/0.lkh1.tour" ... done
* 550: Cost = 0_1156882, Time = 18.01 sec. 
Writing OUTPUT_TOUR_FILE: "baseline_results/cvrp_lkh/Vrp-Set-X-n214/Vrp-Set-X-n214-lkh/0.lkh1.tour" ... done
* 621: Cost = 0_1155216, Time = 19.96 sec. 
Writing OUTPUT_TOUR_FILE: "baseline_results/cvrp_lkh/Vrp-Set-X-n214/Vrp-Set-X-n214-lkh/0.lkh1.tour" ... done
* 657: Cost = 0_1153359, Time = 21.06 sec. 
Writing OUTPUT_TOUR_FILE: "baseline_results/cvrp_lkh/Vrp-Set-X-n214/Vrp-Set-X-n214-lkh/0.lkh1.tour" ... done
* 749: Cost = 0_1152602, Time = 23.71 sec. 
Writing OUTPUT_TOUR_FILE: "baseline_results/cvrp_lkh/Vrp-Set-X-n214/Vrp-Set-X-n214-lkh/0.lkh1.tour" ... done
* 771: Cost = 0_1151946, Time = 24.20 sec. 
Writing OUTPUT_TOUR_FILE: "baseline_results/cvrp_lkh/Vrp-Set-X-n214/Vrp-Set-X-n214-lkh/0.lkh1.tour" ... done
* 788: Cost = 0_1150888, Time = 24.64 sec. 
Writing OUTPUT_TOUR_FILE: "baseline_results/cvrp_lkh/Vrp-Set-X-n214/Vrp-Set-X-n214-lkh/0.lkh1.tour" ... done
* 827: Cost = 0_1150851, Time = 25.81 sec. 
Writing OUTPUT_TOUR_FILE: "baseline_results/cvrp_lkh/Vrp-Set-X-n214/Vrp-Set-X-n214-lkh/0.lkh1.tour" ... done
* 842: Cost = 0_1150611, Time = 26.16 sec. 
Writing OUTPUT_TOUR_FILE: "baseline_results/cvrp_lkh/Vrp-Set-X-n214/Vrp-Set-X-n214-lkh/0.lkh1.tour" ... done
* 858: Cost = 0_1147196, Time = 26.61 sec. 
Writing OUTPUT_TOUR_FILE: "baseline_results/cvrp_lkh/Vrp-Set-X-n214/Vrp-Set-X-n214-lkh/0.lkh1.tour" ... done
* 866: Cost = 0_1146870, Time = 26.72 sec. 
Writing OUTPUT_TOUR_FILE: "baseline_results/cvrp_lkh/Vrp-Set-X-n214/Vrp-Set-X-n214-lkh/0.lkh1.tour" ... done
* 916: Cost = 0_1146814, Time = 27.95 sec. 
Writing OUTPUT_TOUR_FILE: "baseline_results/cvrp_lkh/Vrp-Set-X-n214/Vrp-Set-X-n214-lkh/0.lkh1.tour" ... done
* 929: Cost = 0_1145857, Time = 28.24 sec. 
Writing OUTPUT_TOUR_FILE: "baseline_results/cvrp_lkh/Vrp-Set-X-n214/Vrp-Set-X-n214-lkh/0.lkh1.tour" ... done
* 975: Cost = 0_1144308, Time = 29.61 sec. 
Writing OUTPUT_TOUR_FILE: "baseline_results/cvrp_lkh/Vrp-Set-X-n214/Vrp-Set-X-n214-lkh/0.lkh1.tour" ... done
* 983: Cost = 0_1143736, Time = 29.86 sec. 
Writing OUTPUT_TOUR_FILE: "baseline_results/cvrp_lkh/Vrp-Set-X-n214/Vrp-Set-X-n214-lkh/0.lkh1.tour" ... done
* 992: Cost = 0_1142893, Time = 30.07 sec. 
Writing OUTPUT_TOUR_FILE: "baseline_results/cvrp_lkh/Vrp-Set-X-n214/Vrp-Set-X-n214-lkh/0.lkh1.tour" ... done
* 994: Cost = 0_1141177, Time = 30.08 sec. 
Writing OUTPUT_TOUR_FILE: "baseline_results/cvrp_lkh/Vrp-Set-X-n214/Vrp-Set-X-n214-lkh/0.lkh1.tour" ... done
* 1048: Cost = 0_1138145, Time = 31.44 sec. 
Writing OUTPUT_TOUR_FILE: "baseline_results/cvrp_lkh/Vrp-Set-X-n214/Vrp-Set-X-n214-lkh/0.lkh1.tour" ... done
* 1089: Cost = 0_1138065, Time = 32.59 sec. 
Writing OUTPUT_TOUR_FILE: "baseline_results/cvrp_lkh/Vrp-Set-X-n214/Vrp-Set-X-n214-lkh/0.lkh1.tour" ... done
* 1405: Cost = 0_1137304, Time = 39.78 sec. 
Writing OUTPUT_TOUR_FILE: "baseline_results/cvrp_lkh/Vrp-Set-X-n214/Vrp-Set-X-n214-lkh/0.lkh1.tour" ... done
* 1438: Cost = 0_1135835, Time = 40.53 sec. 
Writing OUTPUT_TOUR_FILE: "baseline_results/cvrp_lkh/Vrp-Set-X-n214/Vrp-Set-X-n214-lkh/0.lkh1.tour" ... done
* 1535: Cost = 0_1134577, Time = 42.48 sec. 
Writing OUTPUT_TOUR_FILE: "baseline_results/cvrp_lkh/Vrp-Set-X-n214/Vrp-Set-X-n214-lkh/0.lkh1.tour" ... done
* 1776: Cost = 0_1134121, Time = 47.78 sec. 
Writing OUTPUT_TOUR_FILE: "baseline_results/cvrp_lkh/Vrp-Set-X-n214/Vrp-Set-X-n214-lkh/0.lkh1.tour" ... done
* 1895: Cost = 0_1132409, Time = 50.74 sec. 
Writing OUTPUT_TOUR_FILE: "baseline_results/cvrp_lkh/Vrp-Set-X-n214/Vrp-Set-X-n214-lkh/0.lkh1.tour" ... done
* 1907: Cost = 0_1132116, Time = 51.17 sec. 
Writing OUTPUT_TOUR_FILE: "baseline_results/cvrp_lkh/Vrp-Set-X-n214/Vrp-Set-X-n214-lkh/0.lkh1.tour" ... done
* 1962: Cost = 0_1131502, Time = 52.71 sec. 
Writing OUTPUT_TOUR_FILE: "baseline_results/cvrp_lkh/Vrp-Set-X-n214/Vrp-Set-X-n214-lkh/0.lkh1.tour" ... done
* 2336: Cost = 0_1128238, Time = 62.08 sec. 
Writing OUTPUT_TOUR_FILE: "baseline_results/cvrp_lkh/Vrp-Set-X-n214/Vrp-Set-X-n214-lkh/0.lkh1.tour" ... done
* 2365: Cost = 0_1127832, Time = 62.98 sec. 
Writing OUTPUT_TOUR_FILE: "baseline_results/cvrp_lkh/Vrp-Set-X-n214/Vrp-Set-X-n214-lkh/0.lkh1.tour" ... done
* 2375: Cost = 0_1126883, Time = 63.26 sec. 
Writing OUTPUT_TOUR_FILE: "baseline_results/cvrp_lkh/Vrp-Set-X-n214/Vrp-Set-X-n214-lkh/0.lkh1.tour" ... done
* 2391: Cost = 0_1125466, Time = 63.66 sec. 
Writing OUTPUT_TOUR_FILE: "baseline_results/cvrp_lkh/Vrp-Set-X-n214/Vrp-Set-X-n214-lkh/0.lkh1.tour" ... done
* 2412: Cost = 0_1125002, Time = 64.22 sec. 
Writing OUTPUT_TOUR_FILE: "baseline_results/cvrp_lkh/Vrp-Set-X-n214/Vrp-Set-X-n214-lkh/0.lkh1.tour" ... done
* 2827: Cost = 0_1124348, Time = 75.26 sec. 
Writing OUTPUT_TOUR_FILE: "baseline_results/cvrp_lkh/Vrp-Set-X-n214/Vrp-Set-X-n214-lkh/0.lkh1.tour" ... done
* 2836: Cost = 0_1124269, Time = 75.55 sec. 
Writing OUTPUT_TOUR_FILE: "baseline_results/cvrp_lkh/Vrp-Set-X-n214/Vrp-Set-X-n214-lkh/0.lkh1.tour" ... done
* 2911: Cost = 0_1122729, Time = 77.21 sec. 
Writing OUTPUT_TOUR_FILE: "baseline_results/cvrp_lkh/Vrp-Set-X-n214/Vrp-Set-X-n214-lkh/0.lkh1.tour" ... done
* 3327: Cost = 0_1121911, Time = 87.21 sec. 
Writing OUTPUT_TOUR_FILE: "baseline_results/cvrp_lkh/Vrp-Set-X-n214/Vrp-Set-X-n214-lkh/0.lkh1.tour" ... done
* 3377: Cost = 0_1121399, Time = 88.25 sec. 
Writing OUTPUT_TOUR_FILE: "baseline_results/cvrp_lkh/Vrp-Set-X-n214/Vrp-Set-X-n214-lkh/0.lkh1.tour" ... done
* 3531: Cost = 0_1120637, Time = 91.64 sec. 
Writing OUTPUT_TOUR_FILE: "baseline_results/cvrp_lkh/Vrp-Set-X-n214/Vrp-Set-X-n214-lkh/0.lkh1.tour" ... done
* 3768: Cost = 0_1118765, Time = 97.04 sec. 
Writing OUTPUT_TOUR_FILE: "baseline_results/cvrp_lkh/Vrp-Set-X-n214/Vrp-Set-X-n214-lkh/0.lkh1.tour" ... done
* 3791: Cost = 0_1116528, Time = 97.57 sec. 
Writing OUTPUT_TOUR_FILE: "baseline_results/cvrp_lkh/Vrp-Set-X-n214/Vrp-Set-X-n214-lkh/0.lkh1.tour" ... done
* 4617: Cost = 0_1115533, Time = 121.29 sec. 
Writing OUTPUT_TOUR_FILE: "baseline_results/cvrp_lkh/Vrp-Set-X-n214/Vrp-Set-X-n214-lkh/0.lkh1.tour" ... done
* 4761: Cost = 0_1115260, Time = 125.20 sec. 
Writing OUTPUT_TOUR_FILE: "baseline_results/cvrp_lkh/Vrp-Set-X-n214/Vrp-Set-X-n214-lkh/0.lkh1.tour" ... done
* 4869: Cost = 0_1114970, Time = 127.55 sec. 
Writing OUTPUT_TOUR_FILE: "baseline_results/cvrp_lkh/Vrp-Set-X-n214/Vrp-Set-X-n214-lkh/0.lkh1.tour" ... done
* 4957: Cost = 0_1114916, Time = 130.08 sec. 
Writing OUTPUT_TOUR_FILE: "baseline_results/cvrp_lkh/Vrp-Set-X-n214/Vrp-Set-X-n214-lkh/0.lkh1.tour" ... done
* 4979: Cost = 0_1114467, Time = 130.60 sec. 
Writing OUTPUT_TOUR_FILE: "baseline_results/cvrp_lkh/Vrp-Set-X-n214/Vrp-Set-X-n214-lkh/0.lkh1.tour" ... done
* 5006: Cost = 0_1113681, Time = 131.33 sec. 
Writing OUTPUT_TOUR_FILE: "baseline_results/cvrp_lkh/Vrp-Set-X-n214/Vrp-Set-X-n214-lkh/0.lkh1.tour" ... done
* 5042: Cost = 0_1113409, Time = 132.17 sec. 
Writing OUTPUT_TOUR_FILE: "baseline_results/cvrp_lkh/Vrp-Set-X-n214/Vrp-Set-X-n214-lkh/0.lkh1.tour" ... done
* 5276: Cost = 0_1112856, Time = 138.22 sec. 
Writing OUTPUT_TOUR_FILE: "baseline_results/cvrp_lkh/Vrp-Set-X-n214/Vrp-Set-X-n214-lkh/0.lkh1.tour" ... done
* 5303: Cost = 0_1112827, Time = 138.83 sec. 
Writing OUTPUT_TOUR_FILE: "baseline_results/cvrp_lkh/Vrp-Set-X-n214/Vrp-Set-X-n214-lkh/0.lkh1.tour" ... done
* 5349: Cost = 0_1112753, Time = 139.94 sec. 
Writing OUTPUT_TOUR_FILE: "baseline_results/cvrp_lkh/Vrp-Set-X-n214/Vrp-Set-X-n214-lkh/0.lkh1.tour" ... done
* 5678: Cost = 0_1112206, Time = 149.67 sec. 
Writing OUTPUT_TOUR_FILE: "baseline_results/cvrp_lkh/Vrp-Set-X-n214/Vrp-Set-X-n214-lkh/0.lkh1.tour" ... done
* 7701: Cost = 0_1112162, Time = 203.54 sec. 
Writing OUTPUT_TOUR_FILE: "baseline_results/cvrp_lkh/Vrp-Set-X-n214/Vrp-Set-X-n214-lkh/0.lkh1.tour" ... done
* 8064: Cost = 0_1109540, Time = 215.03 sec. 
Writing OUTPUT_TOUR_FILE: "baseline_results/cvrp_lkh/Vrp-Set-X-n214/Vrp-Set-X-n214-lkh/0.lkh1.tour" ... done
* 8090: Cost = 0_1108946, Time = 215.73 sec. 
Writing OUTPUT_TOUR_FILE: "baseline_results/cvrp_lkh/Vrp-Set-X-n214/Vrp-Set-X-n214-lkh/0.lkh1.tour" ... done
* 8586: Cost = 0_1108680, Time = 228.82 sec. 
Writing OUTPUT_TOUR_FILE: "baseline_results/cvrp_lkh/Vrp-Set-X-n214/Vrp-Set-X-n214-lkh/0.lkh1.tour" ... done
* 8638: Cost = 0_1107867, Time = 229.82 sec. 
Writing OUTPUT_TOUR_FILE: "baseline_results/cvrp_lkh/Vrp-Set-X-n214/Vrp-Set-X-n214-lkh/0.lkh1.tour" ... done
* 8770: Cost = 0_1107471, Time = 233.22 sec. 
Writing OUTPUT_TOUR_FILE: "baseline_results/cvrp_lkh/Vrp-Set-X-n214/Vrp-Set-X-n214-lkh/0.lkh1.tour" ... done
Population:
  1: 0_1107471
Run 1: Cost = 0_1107471, Time = 263.90 sec. 

Successes/Runs = 0/1 
Cost.min = 1107471, Cost.avg = 1107471.00, Cost.max = 1107471
Gap.min = 0.0000%, Gap.avg = 0.0000%, Gap.max = 0.0000%
Penalty.min = 0, Penalty.avg = 0.00, Penalty.max = 0
Trials.min = 10000, Trials.avg = 10000.0, Trials.max = 10000
Time.min = 263.90 sec., Time.avg = 263.90 sec., Time.max = 263.90 sec.
Time.total = 263.94 sec.
  Size.min = 15, Size.max = 22, Penalty = 0
  Cost.min = 49804, Cost.max = 147841, Cost.sum = 1107471
Best CVRP solution:
  Cost = 0_1107471

