experiment/data/lkh-res/Vrp-Set-X-n214/Vrp-Set-X-n214-lkh/0.lkh1.tour
NAME : 0.1107471.tour
COMMENT : Length = 1107471
COMMENT : Found by LKH-3 [Keld Helsgaun] Tue Apr  9 04:14:36 2024
TYPE : TOUR
DIMENSION : 224
TOUR_SECTION
1
34
167
181
176
98
137
116
60
160
174
51
126
74
39
40
11
207
192
50
48
218
144
59
104
208
36
2
112
58
129
166
101
76
68
155
113
203
212
175
24
141
217
5
102
127
199
10
135
147
91
87
55
185
114
123
115
17
96
151
146
45
86
29
222
210
154
110
184
52
165
38
67
15
70
90
62
9
171
26
53
128
13
117
223
139
156
132
31
134
35
99
78
140
42
6
130
133
12
69
64
18
164
188
194
215
37
190
161
197
4
200
61
143
19
111
177
109
43
80
198
204
22
220
100
41
158
105
205
142
131
189
89
95
75
30
44
193
172
179
120
195
20
16
88
163
216
150
47
202
183
196
57
82
23
213
178
157
3
148
92
63
49
145
46
168
136
125
221
72
66
107
56
73
84
211
93
180
124
159
106
71
7
170
224
152
85
25
209
119
186
103
27
149
214
191
162
21
206
122
33
108
32
153
219
173
8
65
201
187
54
118
169
28
77
79
83
182
94
121
14
81
138
97
-1
EOF
